64 0 
77 87 
93 39 
65 8 
7 93 
86 27 
54 68 
28 43 
90 49 
62 48 
25 30 
86 7 
41 70 
14 73 
46 56 
23 62 
56 0 
1 1 
92 67 
61 99 
12 47 
26 67 
67 55 
62 58 
56 24 
6 81 
55 92 
41 48 
15 55 
22 13 
11 97 
76 67 
49 29 
68 41 
96 29 
40 9 
28 19 
28 95 
26 90 
53 82 
15 12 
16 22 
56 57 
22 23 
12 44 
37 75 
93 65 
42 43 
94 62 
84 43 
